Maximize
  2 C0 - 6 C1 - 7 C2 + C3 - 3 C4 - C5
Subject To
 R0: C0 + C1 - C5 <= 0
 R1: - C0 - 2 C1 - 2 C2 + C3 + C4 - 2 C5 <= 2
 R2: - C0 + C1 + C2 - 2 C3 + C5 <= 1
 R3: C0 - 2 C1 + C3 - C4 + C5 <= 5
 R4: C0 + C1 <= 3
 R5: - 2 C1 - 2 C2 + C3 - C4 <= 0
Bounds
 C0 free
 C1 free
 C2 free
 C3 free
 C4 free
 C5 free
Generals
 C0 C1 C2 C3 C4 C5
End
